p cnf 18 41
2 6 7 9 -13 -10 0
5 7 -18 -12 -10 -8 0
2 -18 15 -10 -3 -1 0
5 9 11 -12 -8 -6 0
3 9 11 14 -12 -4 0
3 11 13 15 -6 -4 0
7 11 12 17 -14 -8 0
1 5 11 -12 -10 -6 0
1 3 7 13 -10 -8 0
5 11 -16 -14 -10 -6 0
3 7 15 -13 -6 -4 0
1 6 7 14 -12 -2 0
1 9 -18 15 -4 -2 0
1 5 -14 -12 -4 -2 0
7 9 11 15 -13 -10 0
2 5 9 -16 -13 -4 0
17 -10 0
-16 15 0
11 -18 0
-14 13 0
-7 -18 0
11 -3 0
17 15 0
2 4 0
6 -18 0
-16 17 0
9 13 0
9 4 0
-14 4 0
17 4 0
-7 -10 0
-12 -3 0
-16 -3 0
17 2 0
8 0
-5 0
-12 -10 15 0
-16 -4 -2 14 0
-14 -12 -18 0
-16 1 -2 0
2 -13 -12 -10 14 0
